     Program PWSCF v.7.3.1 starts on 14Dec2024 at 10:20:24

     Waiting for input...
     Reading input from standard input

     Current dimensions of program PWSCF are:
     Max number of different atomic species (ntypx) = 10
     Max number of k-points (npk) =  40000
     Max angular momentum in pseudopotentials (lmaxx) =  4

     File ./out/aiida.update deleted, as requested

     File ./out/aiida.bfgs deleted, as requested
     file O.pbesol-n-kjpaw_psl.0.1.UPF: wavefunction(s)  2P renormalized
     Message from routine setup:
     using ibrav=0 with symmetry is DISCOURAGED, use correct ibrav instead

     Subspace diagonalization in iterative solution of the eigenvalue problem:
     a serial algorithm will be used

     Using Slab Decomposition

     bravais-lattice index     =            0
     lattice parameter (alat)  =       7.4873  a.u.
     unit-cell volume          =    1370.1431 (a.u.)^3
     number of atoms/cell      =            4
     number of atomic types    =            2
     number of electrons       =        32.00
     number of Kohn-Sham states=           20
     kinetic-energy cutoff     =      50.0000  Ry
     charge density cutoff     =     400.0000  Ry
     scf convergence threshold =      8.0E-10
     mixing beta               =       0.4000
     number of iterations used =            8  plain     mixing
     Exchange-correlation= SLA  PW   PSX  PSC
                           (   1   4  10   8   0   0   0)

     celldm(1)=   7.487284  celldm(2)=   0.000000  celldm(3)=   0.000000
     celldm(4)=   0.000000  celldm(5)=   0.000000  celldm(6)=   0.000000

     crystal axes: (cart. coord. in units of alat)
               a(1) = (   1.000000   0.000000   0.000000 )
               a(2) = (   0.000000   3.496883   0.000000 )
               a(3) = (   0.000000   0.000000   0.933495 )

     reciprocal axes: (cart. coord. in units 2 pi/alat)
               b(1) = (  1.000000  0.000000  0.000000 )
               b(2) = (  0.000000  0.285969  0.000000 )
               b(3) = (  0.000000  0.000000  1.071243 )

     PseudoPot. # 1 for Mo read from file:
     ./Mo_ONCV_PBEsol-1.0.upf
     MD5 check sum: 5193ba6a20874d27c2ef80314d1b3445
     Pseudo is Norm-conserving, Zval = 14.0
     Generated using ONCVPSP code by D. R. Hamann
     Using radial grid of 1508 points,  6 beta functions with:
                l(1) =   0
                l(2) =   0
                l(3) =   1
                l(4) =   1
                l(5) =   2
                l(6) =   2

     PseudoPot. # 2 for O  read from file:
     ./O.pbesol-n-kjpaw_psl.0.1.UPF
     MD5 check sum: f1fabb93b5f951fba6cb430882e2825c
     Pseudo is Projector augmented-wave + core cor, Zval =  6.0
     Generated using &quot;atomic&quot; code by A. Dal Corso  v.6.3
     Shape of augmentation charge: BESSEL
     Using radial grid of 1095 points,  4 beta functions with:
                l(1) =   0
                l(2) =   0
                l(3) =   1
                l(4) =   1
     Q(r) pseudized with 0 coefficients

     atomic species   valence    mass     pseudopotential
     Mo               14.00    95.96000     Mo( 1.00)
     O                 6.00    15.99940     O ( 1.00)

      2 Sym. Ops. (no inversion) found ( 1 have fractional translation)

                                    s                        frac. trans.

      isym =  1     identity

 cryst.   s( 1) = (     1          0          0      )
                  (     0          1          0      )
                  (     0          0          1      )

 cart.    s( 1) = (  1.0000000  0.0000000  0.0000000 )
                  (  0.0000000  1.0000000  0.0000000 )
                  (  0.0000000  0.0000000  1.0000000 )

      isym =  2     inv. 180 deg rotation - cart. axis [0,0,1]

 cryst.   s( 2) = (     1          0          0      )    f =(  0.0000000 )
                  (     0          1          0      )       (  0.0000000 )
                  (     0          0         -1      )       (  0.5000000 )

 cart.    s( 2) = (  1.0000000  0.0000000  0.0000000 )    f =(  0.0000000 )
                  (  0.0000000  1.0000000  0.0000000 )       (  0.0000000 )
                  (  0.0000000  0.0000000 -1.0000000 )       (  0.4667474 )

   Cartesian axes

     site n.     atom                  positions (alat units)
         1        Mo     tau(   1) = (   0.5750000   1.3917594   0.7001211  )
         2        O      tau(   2) = (   0.5260000   1.4896721   0.2333737  )
         3        O      tau(   3) = (   0.0660000   1.4477095   0.7001211  )
         4        O      tau(   4) = (   0.5100000   0.9651397   0.7001211  )

   Crystallographic axes

     site n.     atom                  positions (cryst. coord.)
         1        Mo     tau(   1) = (  0.5750000  0.3980000  0.7500000  )
         2        O      tau(   2) = (  0.5260000  0.4260000  0.2500000  )
         3        O      tau(   3) = (  0.0660000  0.4140000  0.7500000  )
         4        O      tau(   4) = (  0.5100000  0.2760000  0.7500000  )

     number of k points=   161  Marzari-Vanderbilt smearing, width (Ry)=  0.0200
                       cart. coord. in units 2pi/alat
        k(    1) = (   0.0000000   0.0000000   0.0000000), wk =   0.0037879
        k(    2) = (   0.0000000   0.0000000   0.0892703), wk =   0.0075758
        k(    3) = (   0.0000000   0.0000000   0.1785405), wk =   0.0075758
        k(    4) = (   0.0000000   0.0000000   0.2678108), wk =   0.0075758
        k(    5) = (   0.0000000   0.0000000   0.3570811), wk =   0.0075758
        k(    6) = (   0.0000000   0.0000000   0.4463513), wk =   0.0075758
        k(    7) = (   0.0000000   0.0000000  -0.5356216), wk =   0.0037879
        k(    8) = (   0.0000000   0.0714922   0.0000000), wk =   0.0075758
        k(    9) = (   0.0000000   0.0714922   0.0892703), wk =   0.0151515
        k(   10) = (   0.0000000   0.0714922   0.1785405), wk =   0.0151515
        k(   11) = (   0.0000000   0.0714922   0.2678108), wk =   0.0151515
        k(   12) = (   0.0000000   0.0714922   0.3570811), wk =   0.0151515
        k(   13) = (   0.0000000   0.0714922   0.4463513), wk =   0.0151515
        k(   14) = (   0.0000000   0.0714922  -0.5356216), wk =   0.0075758
        k(   15) = (   0.0000000  -0.1429845   0.0000000), wk =   0.0037879
        k(   16) = (   0.0000000  -0.1429845   0.0892703), wk =   0.0075758
        k(   17) = (   0.0000000  -0.1429845   0.1785405), wk =   0.0075758
        k(   18) = (   0.0000000  -0.1429845   0.2678108), wk =   0.0075758
        k(   19) = (   0.0000000  -0.1429845   0.3570811), wk =   0.0075758
        k(   20) = (   0.0000000  -0.1429845   0.4463513), wk =   0.0075758
        k(   21) = (   0.0000000  -0.1429845  -0.5356216), wk =   0.0037879
        k(   22) = (   0.0909091   0.0000000   0.0000000), wk =   0.0075758
        k(   23) = (   0.0909091   0.0000000   0.0892703), wk =   0.0151515
        k(   24) = (   0.0909091   0.0000000   0.1785405), wk =   0.0151515
        k(   25) = (   0.0909091   0.0000000   0.2678108), wk =   0.0151515
        k(   26) = (   0.0909091   0.0000000   0.3570811), wk =   0.0151515
        k(   27) = (   0.0909091   0.0000000   0.4463513), wk =   0.0151515
        k(   28) = (   0.0909091   0.0000000  -0.5356216), wk =   0.0075758
        k(   29) = (   0.0909091   0.0714922   0.0000000), wk =   0.0075758
        k(   30) = (   0.0909091   0.0714922   0.0892703), wk =   0.0151515
        k(   31) = (   0.0909091   0.0714922   0.1785405), wk =   0.0151515
        k(   32) = (   0.0909091   0.0714922   0.2678108), wk =   0.0151515
        k(   33) = (   0.0909091   0.0714922   0.3570811), wk =   0.0151515
        k(   34) = (   0.0909091   0.0714922   0.4463513), wk =   0.0151515
        k(   35) = (   0.0909091   0.0714922  -0.5356216), wk =   0.0075758
        k(   36) = (   0.0909091  -0.1429845   0.0000000), wk =   0.0075758
        k(   37) = (   0.0909091  -0.1429845   0.0892703), wk =   0.0151515
        k(   38) = (   0.0909091  -0.1429845   0.1785405), wk =   0.0151515
        k(   39) = (   0.0909091  -0.1429845   0.2678108), wk =   0.0151515
        k(   40) = (   0.0909091  -0.1429845   0.3570811), wk =   0.0151515
        k(   41) = (   0.0909091  -0.1429845   0.4463513), wk =   0.0151515
        k(   42) = (   0.0909091  -0.1429845  -0.5356216), wk =   0.0075758
        k(   43) = (   0.1818182   0.0000000   0.0000000), wk =   0.0075758
        k(   44) = (   0.1818182   0.0000000   0.0892703), wk =   0.0151515
        k(   45) = (   0.1818182   0.0000000   0.1785405), wk =   0.0151515
        k(   46) = (   0.1818182   0.0000000   0.2678108), wk =   0.0151515
        k(   47) = (   0.1818182   0.0000000   0.3570811), wk =   0.0151515
        k(   48) = (   0.1818182   0.0000000   0.4463513), wk =   0.0151515
        k(   49) = (   0.1818182   0.0000000  -0.5356216), wk =   0.0075758
        k(   50) = (   0.1818182   0.0714922   0.0000000), wk =   0.0075758
        k(   51) = (   0.1818182   0.0714922   0.0892703), wk =   0.0151515
        k(   52) = (   0.1818182   0.0714922   0.1785405), wk =   0.0151515
        k(   53) = (   0.1818182   0.0714922   0.2678108), wk =   0.0151515
        k(   54) = (   0.1818182   0.0714922   0.3570811), wk =   0.0151515
        k(   55) = (   0.1818182   0.0714922   0.4463513), wk =   0.0151515
        k(   56) = (   0.1818182   0.0714922  -0.5356216), wk =   0.0075758
        k(   57) = (   0.1818182  -0.1429845   0.0000000), wk =   0.0075758
        k(   58) = (   0.1818182  -0.1429845   0.0892703), wk =   0.0151515
        k(   59) = (   0.1818182  -0.1429845   0.1785405), wk =   0.0151515
        k(   60) = (   0.1818182  -0.1429845   0.2678108), wk =   0.0151515
[...]
        k(  147) = (  -0.2727273   0.0714922   0.5356216), wk =   0.0075758
        k(  148) = (  -0.3636364   0.0714922   0.0000000), wk =   0.0075758
        k(  149) = (  -0.3636364   0.0714922  -0.0892703), wk =   0.0151515
        k(  150) = (  -0.3636364   0.0714922  -0.1785405), wk =   0.0151515
        k(  151) = (  -0.3636364   0.0714922  -0.2678108), wk =   0.0151515
        k(  152) = (  -0.3636364   0.0714922  -0.3570811), wk =   0.0151515
        k(  153) = (  -0.3636364   0.0714922  -0.4463513), wk =   0.0151515
        k(  154) = (  -0.3636364   0.0714922   0.5356216), wk =   0.0075758
        k(  155) = (  -0.4545455   0.0714922   0.0000000), wk =   0.0075758
        k(  156) = (  -0.4545455   0.0714922  -0.0892703), wk =   0.0151515
        k(  157) = (  -0.4545455   0.0714922  -0.1785405), wk =   0.0151515
        k(  158) = (  -0.4545455   0.0714922  -0.2678108), wk =   0.0151515
        k(  159) = (  -0.4545455   0.0714922  -0.3570811), wk =   0.0151515
        k(  160) = (  -0.4545455   0.0714922  -0.4463513), wk =   0.0151515
        k(  161) = (  -0.4545455   0.0714922   0.5356216), wk =   0.0075758

                       cryst. coord.
        k(    1) = (   0.0000000   0.0000000   0.0000000), wk =   0.0037879
        k(    2) = (   0.0000000   0.0000000   0.0833333), wk =   0.0075758
        k(    3) = (   0.0000000   0.0000000   0.1666667), wk =   0.0075758
        k(    4) = (   0.0000000   0.0000000   0.2500000), wk =   0.0075758
        k(    5) = (   0.0000000   0.0000000   0.3333333), wk =   0.0075758
        k(    6) = (   0.0000000   0.0000000   0.4166667), wk =   0.0075758
        k(    7) = (   0.0000000   0.0000000  -0.5000000), wk =   0.0037879
        k(    8) = (   0.0000000   0.2500000   0.0000000), wk =   0.0075758
        k(    9) = (   0.0000000   0.2500000   0.0833333), wk =   0.0151515
        k(   10) = (   0.0000000   0.2500000   0.1666667), wk =   0.0151515
        k(   11) = (   0.0000000   0.2500000   0.2500000), wk =   0.0151515
        k(   12) = (   0.0000000   0.2500000   0.3333333), wk =   0.0151515
        k(   13) = (   0.0000000   0.2500000   0.4166667), wk =   0.0151515
        k(   14) = (   0.0000000   0.2500000  -0.5000000), wk =   0.0075758
        k(   15) = (   0.0000000  -0.5000000   0.0000000), wk =   0.0037879
        k(   16) = (   0.0000000  -0.5000000   0.0833333), wk =   0.0075758
        k(   17) = (   0.0000000  -0.5000000   0.1666667), wk =   0.0075758
        k(   18) = (   0.0000000  -0.5000000   0.2500000), wk =   0.0075758
        k(   19) = (   0.0000000  -0.5000000   0.3333333), wk =   0.0075758
        k(   20) = (   0.0000000  -0.5000000   0.4166667), wk =   0.0075758
        k(   21) = (   0.0000000  -0.5000000  -0.5000000), wk =   0.0037879
        k(   22) = (   0.0909091   0.0000000   0.0000000), wk =   0.0075758
        k(   23) = (   0.0909091   0.0000000   0.0833333), wk =   0.0151515
        k(   24) = (   0.0909091   0.0000000   0.1666667), wk =   0.0151515
        k(   25) = (   0.0909091   0.0000000   0.2500000), wk =   0.0151515
        k(   26) = (   0.0909091   0.0000000   0.3333333), wk =   0.0151515
        k(   27) = (   0.0909091   0.0000000   0.4166667), wk =   0.0151515
        k(   28) = (   0.0909091   0.0000000  -0.5000000), wk =   0.0075758
        k(   29) = (   0.0909091   0.2500000   0.0000000), wk =   0.0075758
        k(   30) = (   0.0909091   0.2500000   0.0833333), wk =   0.0151515
        k(   31) = (   0.0909091   0.2500000   0.1666667), wk =   0.0151515
        k(   32) = (   0.0909091   0.2500000   0.2500000), wk =   0.0151515
        k(   33) = (   0.0909091   0.2500000   0.3333333), wk =   0.0151515
        k(   34) = (   0.0909091   0.2500000   0.4166667), wk =   0.0151515
        k(   35) = (   0.0909091   0.2500000  -0.5000000), wk =   0.0075758
        k(   36) = (   0.0909091  -0.5000000   0.0000000), wk =   0.0075758
        k(   37) = (   0.0909091  -0.5000000   0.0833333), wk =   0.0151515
        k(   38) = (   0.0909091  -0.5000000   0.1666667), wk =   0.0151515
        k(   39) = (   0.0909091  -0.5000000   0.2500000), wk =   0.0151515
        k(   40) = (   0.0909091  -0.5000000   0.3333333), wk =   0.0151515
        k(   41) = (   0.0909091  -0.5000000   0.4166667), wk =   0.0151515
        k(   42) = (   0.0909091  -0.5000000  -0.5000000), wk =   0.0075758
        k(   43) = (   0.1818182   0.0000000   0.0000000), wk =   0.0075758
        k(   44) = (   0.1818182   0.0000000   0.0833333), wk =   0.0151515
        k(   45) = (   0.1818182   0.0000000   0.1666667), wk =   0.0151515
        k(   46) = (   0.1818182   0.0000000   0.2500000), wk =   0.0151515
        k(   47) = (   0.1818182   0.0000000   0.3333333), wk =   0.0151515
        k(   48) = (   0.1818182   0.0000000   0.4166667), wk =   0.0151515
        k(   49) = (   0.1818182   0.0000000  -0.5000000), wk =   0.0075758
        k(   50) = (   0.1818182   0.2500000   0.0000000), wk =   0.0075758
        k(   51) = (   0.1818182   0.2500000   0.0833333), wk =   0.0151515
        k(   52) = (   0.1818182   0.2500000   0.1666667), wk =   0.0151515
        k(   53) = (   0.1818182   0.2500000   0.2500000), wk =   0.0151515
        k(   54) = (   0.1818182   0.2500000   0.3333333), wk =   0.0151515
        k(   55) = (   0.1818182   0.2500000   0.4166667), wk =   0.0151515
        k(   56) = (   0.1818182   0.2500000  -0.5000000), wk =   0.0075758
        k(   57) = (   0.1818182  -0.5000000   0.0000000), wk =   0.0075758
        k(   58) = (   0.1818182  -0.5000000   0.0833333), wk =   0.0151515
        k(   59) = (   0.1818182  -0.5000000   0.1666667), wk =   0.0151515
        k(   60) = (   0.1818182  -0.5000000   0.2500000), wk =   0.0151515
[...]
        k(  147) = (  -0.2727273   0.2500000   0.5000000), wk =   0.0075758
        k(  148) = (  -0.3636364   0.2500000   0.0000000), wk =   0.0075758
        k(  149) = (  -0.3636364   0.2500000  -0.0833333), wk =   0.0151515
        k(  150) = (  -0.3636364   0.2500000  -0.1666667), wk =   0.0151515
        k(  151) = (  -0.3636364   0.2500000  -0.2500000), wk =   0.0151515
        k(  152) = (  -0.3636364   0.2500000  -0.3333333), wk =   0.0151515
        k(  153) = (  -0.3636364   0.2500000  -0.4166667), wk =   0.0151515
        k(  154) = (  -0.3636364   0.2500000   0.5000000), wk =   0.0075758
        k(  155) = (  -0.4545455   0.2500000   0.0000000), wk =   0.0075758
        k(  156) = (  -0.4545455   0.2500000  -0.0833333), wk =   0.0151515
        k(  157) = (  -0.4545455   0.2500000  -0.1666667), wk =   0.0151515
        k(  158) = (  -0.4545455   0.2500000  -0.2500000), wk =   0.0151515
        k(  159) = (  -0.4545455   0.2500000  -0.3333333), wk =   0.0151515
        k(  160) = (  -0.4545455   0.2500000  -0.4166667), wk =   0.0151515
        k(  161) = (  -0.4545455   0.2500000   0.5000000), wk =   0.0075758

     Check: negative core charge=   -0.000001

     Initial potential from superposition of free atoms

     starting charge      31.9991, renormalised to      32.0000

     negative rho (up, down):  8.152E-05 0.000E+00
     Starting wfcs are   22 randomized atomic wfcs
     Checking if some PAW data can be deallocated...

     Self-consistent Calculation

     iteration #  1     ecut=    50.00 Ry     beta= 0.40
     Davidson diagonalization with overlap

     ethr =  1.00E-02,  avg # of iterations =  2.5

     negative rho (up, down):  6.888E-05 0.000E+00

     total energy              =    -259.94467628 Ry
     estimated scf accuracy    <       2.03144852 Ry

[...]

     WARNING: integrated charge=    32.00036057, expected=    32.00000000

[...]

     total energy              =    -260.70505256 Ry
     estimated scf accuracy    <          1.7E-09 Ry

     iteration # 14     ecut=    50.00 Ry     beta= 0.40
     Davidson diagonalization with overlap

     ethr =  5.43E-12,  avg # of iterations =  1.9

[...]

     End of self-consistent calculation

          k = 0.0000 0.0000 0.0000 (  8201 PWs)   bands (ev):

   -65.3339 -39.7580 -39.4897 -39.3363 -21.3577 -20.3402 -20.0957  -7.8436
    -7.5346  -7.0300  -6.1726  -5.8546  -5.8396  -4.9134  -4.6203  -4.5026
    -2.7643  -0.8826  -0.0251   0.7009

     occupation numbers
     1.0000   1.0000   1.0000   1.0000   1.0000   1.0000   1.0000   1.0000
     1.0000   1.0000   1.0000   1.0000   1.0000   1.0000   1.0000   1.0000
     0.1336   0.0000   0.0000   0.0000

[...]

          k = 0.4545-0.1430-0.5356 (  8164 PWs)   bands (ev):

[...]

          k =-0.0909 0.0715 0.0000 (  8186 PWs)   bands (ev):

[...]

          k =-0.4545 0.0715 0.5356 (  8184 PWs)   bands (ev):

   -65.3295 -39.7494 -39.6197 -39.3880 -20.0874 -20.0681 -19.4248  -9.9017
    -9.0665  -8.6288  -7.7890  -7.5471  -6.6379  -4.8082  -4.1745  -3.4534
    -0.3892  -0.3428   0.4326   1.1985

     occupation numbers
     1.0000   1.0000   1.0000   1.0000   1.0000   1.0000   1.0000   1.0000
     1.0000   1.0000   1.0000   1.0000   1.0000   1.0000   1.0000   1.0392
     0.0000   0.0000   0.0000   0.0000

     the Fermi energy is    -2.9028 ev

     WARNING: integrated charge=    32.00639366, expected=    32.00000000

!    total energy              =    -260.70505210 Ry
     estimated scf accuracy    <          9.8E-11 Ry
     smearing contrib. (-TS)   =       0.00010945 Ry
     internal energy E=F+TS    =    -260.70516156 Ry

     The total energy is F=E-TS. E is the sum of the following terms:
     one-electron contribution =    -784.55526762 Ry
     hartree contribution      =     393.80331249 Ry
     xc contribution           =     -36.98311083 Ry
     ewald contribution        =     194.37798089 Ry
     one-center paw contrib.   =     -27.34807649 Ry
      -> PAW hartree energy AE =      77.88072811 Ry
      -> PAW hartree energy PS =     -77.51880870 Ry
      -> PAW xc energy AE      =     -48.52238342 Ry
      -> PAW xc energy PS      =      20.81238752 Ry
      -> total E_H with PAW    =     394.16523190 Ry
      -> total E_XC with PAW   =     -64.69310673 Ry

     convergence has been achieved in  14 iterations

     negative rho (up, down):  8.320E-05 0.000E+00

     Forces acting on atoms (cartesian axes, Ry/au):

     atom    1 type  1   force =     0.01362535   -0.11759688    0.00000000
     atom    2 type  2   force =     0.02628630    0.02831378    0.00000000
     atom    3 type  2   force =    -0.08734914    0.01642173    0.00000000
     atom    4 type  2   force =     0.04743749    0.07286138    0.00000000
     The non-local contrib.  to forces
     atom    1 type  1   force =     0.01428334   -0.10146823    0.00000000
     atom    2 type  2   force =     0.23909130   -0.22562085    0.00000000
     atom    3 type  2   force =    -0.14754325   -0.03511540    0.00000000
     atom    4 type  2   force =     0.32257239    1.47848551    0.00000000
     The ionic contribution  to forces
     atom    1 type  1   force =     2.80380211   12.16794367    0.00000000
     atom    2 type  2   force =    -1.26951084   13.26822908   -0.00000000
     atom    3 type  2   force =     0.03051096    8.42785899   -0.00000000
     atom    4 type  2   force =    -1.56480222  -33.86403174   -0.00000000
     The local contribution  to forces
     atom    1 type  1   force =    -2.80445228  -12.18411273    0.00000000
     atom    2 type  2   force =     1.05857938  -13.01534539    0.00000000
     atom    3 type  2   force =     0.02874316   -8.37611019    0.00000000
     atom    4 type  2   force =     1.29238865   32.46852918    0.00000000
     The core correction contribution to forces
     atom    1 type  1   force =     0.00000000    0.00000000    0.00000000
     atom    2 type  2   force =    -0.00187410    0.00104087    0.00000000
     atom    3 type  2   force =     0.00093888   -0.00022297    0.00000000
     atom    4 type  2   force =    -0.00271758   -0.01013446    0.00000000
     The Hubbard contrib.    to forces
     atom    1 type  1   force =     0.00000000    0.00000000    0.00000000
     atom    2 type  2   force =     0.00000000    0.00000000    0.00000000
     atom    3 type  2   force =     0.00000000    0.00000000    0.00000000
     atom    4 type  2   force =     0.00000000    0.00000000    0.00000000
     The SCF correction term to forces
     atom    1 type  1   force =    -0.00000686    0.00004053    0.00000000
     atom    2 type  2   force =     0.00000152    0.00001019    0.00000000
     atom    3 type  2   force =     0.00000209    0.00001142    0.00000000
     atom    4 type  2   force =    -0.00000279    0.00001302    0.00000000

     Total force =     0.175971     Total SCF correction =     0.000046

     Computing stress (Cartesian axis) and pressure

     negative rho (up, down):  8.320E-05 0.000E+00
          total   stress  (Ry/bohr**3)                   (kbar)     P=      -32.67
  -0.00043726  -0.00012326   0.00000000          -64.32      -18.13        0.00
  -0.00012326  -0.00015062   0.00000000          -18.13      -22.16        0.00
   0.00000000   0.00000000  -0.00007832            0.00        0.00      -11.52

     kinetic stress (kbar)   6501.70    -16.57      0.00
                              -16.57   6584.86      0.00
                                0.00      0.00   6499.19

     local   stress (kbar) -75703.26   -619.23      0.00
                             -619.23  67660.97     -0.00
                                0.00     -0.00 -77005.60

     nonloc. stress (kbar)   1984.57     -4.95      0.00
                               -4.95   1956.24      0.00
                                0.00      0.00   1984.23

     hartree stress (kbar)  37083.48    183.89     -0.00
                              183.89 -32336.32      0.00
                               -0.00      0.00  37533.43

     exc-cor stress (kbar)  -1099.28      0.64     -0.00
                                0.64  -1102.20      0.00
                               -0.00      0.00  -1099.09

     corecor stress (kbar)   -136.67     -0.00      0.00
                               -0.00   -136.94      0.00
                                0.00      0.00   -136.67

     ewald   stress (kbar)  31305.13    438.09      0.00
                              438.09 -42648.76     -0.00
                                0.00     -0.00  32212.97

     hubbard stress (kbar)      0.00      0.00      0.00
                                0.00      0.00      0.00
                                0.00      0.00      0.00

     DFT-D   stress (kbar)      0.00      0.00      0.00
                                0.00      0.00      0.00
                                0.00      0.00      0.00

     XDM     stress (kbar)      0.00      0.00      0.00
                                0.00      0.00      0.00
                                0.00      0.00      0.00

     dft-nl  stress (kbar)      0.00      0.00      0.00
                                0.00      0.00      0.00
                                0.00      0.00      0.00

     TS-vdW  stress (kbar)      0.00      0.00      0.00
                                0.00      0.00      0.00
                                0.00      0.00      0.00

     MDB     stress (kbar)      0.00      0.00      0.00
                                0.00      0.00      0.00
                                0.00      0.00      0.00

     3D-RISM stress (kbar)      0.00      0.00      0.00
                                0.00      0.00      0.00
                                0.00      0.00      0.00

     Writing all to output data dir ./out/aiida.save/ :
     XML data file, charge density, pseudopotentials, collected wavefunctions

     General routines

     Parallel routines

     PAW routines

   This run was terminated on:  10:30:37  14Dec2024

   JOB DONE.