     Program PWSCF v.7.3.1 starts on 12Dec2024 at 13:29:41

     Waiting for input...
     Reading input from standard input

     Current dimensions of program PWSCF are:
     Max number of different atomic species (ntypx) = 10
     Max number of k-points (npk) =  40000
     Max angular momentum in pseudopotentials (lmaxx) =  4

     File ./out/aiida.update deleted, as requested

     File ./out/aiida.bfgs deleted, as requested
     Message from routine setup:
     using ibrav=0 with symmetry is DISCOURAGED, use correct ibrav instead

     Subspace diagonalization in iterative solution of the eigenvalue problem:
     a serial algorithm will be used

     Using Slab Decomposition

     bravais-lattice index     =            0
     lattice parameter (alat)  =       6.0288  a.u.
     unit-cell volume          =     885.0514 (a.u.)^3
     number of atoms/cell      =            3
     number of atomic types    =            2
     number of electrons       =        26.00
     number of Kohn-Sham states=           17
     kinetic-energy cutoff     =      35.0000  Ry
     charge density cutoff     =     280.0000  Ry
     scf convergence threshold =      6.0E-10
     mixing beta               =       0.4000
     number of iterations used =            8  plain     mixing
     energy convergence thresh.=      3.0E-05
     force convergence thresh. =      1.0E-04
     Exchange-correlation= SLA  PW   PSX  PSC
                           (   1   4  10   8   0   0   0)
     nstep                     =           50

     celldm(1)=   6.028823  celldm(2)=   0.000000  celldm(3)=   0.000000
     celldm(4)=   0.000000  celldm(5)=   0.000000  celldm(6)=   0.000000

     crystal axes: (cart. coord. in units of alat)
               a(1) = (   1.000000   0.000000   0.000000 )
               a(2) = (  -0.500000   0.866025   0.000000 )
               a(3) = (   0.000000   0.000000   4.663803 )

     reciprocal axes: (cart. coord. in units 2 pi/alat)
               b(1) = (  1.000000  0.577350 -0.000000 )
               b(2) = (  0.000000  1.154701  0.000000 )
               b(3) = (  0.000000 -0.000000  0.214417 )

     PseudoPot. # 1 for Mo read from file:
     ./Mo_ONCV_PBEsol-1.0.upf
     MD5 check sum: 5193ba6a20874d27c2ef80314d1b3445
     Pseudo is Norm-conserving, Zval = 14.0
     Generated using ONCVPSP code by D. R. Hamann
     Using radial grid of 1508 points,  6 beta functions with:
                l(1) =   0
                l(2) =   0
                l(3) =   1
                l(4) =   1
                l(5) =   2
                l(6) =   2

     PseudoPot. # 2 for S  read from file:
     ./s_pbesol_v1.4.uspp.F.UPF
     MD5 check sum: 0ccfa86ec6eb59065d10aaae963ef2a7
     Pseudo is Ultrasoft + core correction, Zval =  6.0
     Generated by new atomic code, or converted to UPF format
     Using radial grid of  907 points,  6 beta functions with:
                l(1) =   0
                l(2) =   0
                l(3) =   1
                l(4) =   1
                l(5) =   2
                l(6) =   2
     Q(r) pseudized with  8 coefficients,  rinner =    1.300   1.300   1.300
                                                       1.300   1.300

     atomic species   valence    mass     pseudopotential
     Mo               14.00    95.96000     Mo( 1.00)
     S                 6.00    32.06500     S ( 1.00)

     12 Sym. Ops. (no inversion) found ( 6 have fractional translation)

                                    s                        frac. trans.

      isym =  1     identity

 cryst.   s( 1) = (     1          0          0      )
                  (     0          1          0      )
                  (     0          0          1      )

 cart.    s( 1) = (  1.0000000  0.0000000  0.0000000 )
                  (  0.0000000  1.0000000  0.0000000 )
                  (  0.0000000  0.0000000  1.0000000 )

      isym =  2     180 deg rotation - cart. axis [0,1,0]

 cryst.   s( 2) = (    -1          0          0      )    f =( -0.0000010 )
                  (     1          1          0      )       (  0.0000000 )
                  (     0          0         -1      )       (  0.5000000 )

 cart.    s( 2) = ( -1.0000000  0.0000000  0.0000000 )    f =( -0.0000010 )
                  (  0.0000000  1.0000000  0.0000000 )       (  0.0000000 )
                  (  0.0000000  0.0000000 -1.0000000 )       (  2.3319013 )

      isym =  3     120 deg rotation - cryst. axis [0,0,1]

[...]

      isym =  6     180 deg rotation - cryst. axis [2,1,0]

[...]

      isym =  7     inv. 180 deg rotation - cart. axis [0,0,1]

[...]

      isym =  8     inv. 180 deg rotation - cart. axis [1,0,0]

 cryst.   s( 8) = (    -1          0          0      )
                  (     1          1          0      )
                  (     0          0          1      )

 cart.    s( 8) = ( -1.0000000  0.0000000  0.0000000 )
                  (  0.0000000  1.0000000  0.0000000 )
                  (  0.0000000  0.0000000  1.0000000 )

      isym =  9     inv.  60 deg rotation - cryst. axis [0,0,1]

 cryst.   s( 9) = (    -1         -1          0      )    f =( -0.0000010 )
                  (     1          0          0      )       (  0.0000000 )
                  (     0          0         -1      )       (  0.5000000 )

 cart.    s( 9) = ( -0.5000000  0.8660254  0.0000000 )    f =( -0.0000010 )
                  ( -0.8660254 -0.5000000  0.0000000 )       (  0.0000000 )
                  (  0.0000000  0.0000000 -1.0000000 )       (  2.3319013 )

[...]

 cryst.   s(10) = (     0          1          0      )    f =(  0.0000000 )
                  (    -1         -1          0      )       (  0.0000010 )
                  (     0          0         -1      )       (  0.5000000 )

 cart.    s(10) = ( -0.5000000 -0.8660254  0.0000000 )    f =( -0.0000005 )
                  (  0.8660254 -0.5000000  0.0000000 )       (  0.0000009 )
                  (  0.0000000  0.0000000 -1.0000000 )       (  2.3319013 )

[...]

 cryst.   s(11) = (     1          1          0      )
                  (     0         -1          0      )
                  (     0          0          1      )

 cart.    s(11) = (  0.5000000  0.8660254  0.0000000 )
                  (  0.8660254 -0.5000000  0.0000000 )
                  (  0.0000000  0.0000000  1.0000000 )

      isym = 12     inv. 180 deg rotation - cryst. axis [1,1,0]

 cryst.   s(12) = (     0         -1          0      )
                  (    -1          0          0      )
                  (     0          0          1      )

 cart.    s(12) = (  0.5000000 -0.8660254  0.0000000 )
                  ( -0.8660254 -0.5000000  0.0000000 )
                  (  0.0000000  0.0000000  1.0000000 )

   Cartesian axes

     site n.     atom                  positions (alat units)
         1        Mo     tau(   1) = (   0.5000005   0.2886748   3.4978519  )
         2        S      tau(   2) = (  -0.0000005   0.5773506   3.0073412  )
         3        S      tau(   3) = (  -0.0000005   0.5773506   3.9883627  )

   Crystallographic axes

     site n.     atom                  positions (cryst. coord.)
         1        Mo     tau(   1) = (  0.6666670  0.3333330  0.7500000  )
         2        S      tau(   2) = (  0.3333330  0.6666670  0.6448260  )
         3        S      tau(   3) = (  0.3333330  0.6666670  0.8551740  )

     number of k points=    60  Marzari-Vanderbilt smearing, width (Ry)=  0.0200
                       cart. coord. in units 2pi/alat
        k(    1) = (   0.0000000   0.0000000   0.0000000), wk =   0.0026042
        k(    2) = (   0.0000000   0.0000000   0.0714724), wk =   0.0052083
        k(    3) = (   0.0000000   0.0721688   0.0000000), wk =   0.0156250
        k(    4) = (   0.0000000   0.0721688   0.0714724), wk =   0.0312500
        k(    5) = (   0.0000000   0.1443376   0.0000000), wk =   0.0156250
        k(    6) = (   0.0000000   0.1443376   0.0714724), wk =   0.0312500
        k(    7) = (   0.0000000   0.2165064   0.0000000), wk =   0.0156250
        k(    8) = (   0.0000000   0.2165064   0.0714724), wk =   0.0312500
        k(    9) = (   0.0000000   0.2886751   0.0000000), wk =   0.0156250
        k(   10) = (   0.0000000   0.2886751   0.0714724), wk =   0.0312500
        k(   11) = (   0.0000000   0.3608439   0.0000000), wk =   0.0156250
        k(   12) = (   0.0000000   0.3608439   0.0714724), wk =   0.0312500
        k(   13) = (   0.0000000   0.4330127   0.0000000), wk =   0.0156250
        k(   14) = (   0.0000000   0.4330127   0.0714724), wk =   0.0312500
        k(   15) = (   0.0000000   0.5051815   0.0000000), wk =   0.0156250
        k(   16) = (   0.0000000   0.5051815   0.0714724), wk =   0.0312500
        k(   17) = (   0.0000000  -0.5773503   0.0000000), wk =   0.0078125
        k(   18) = (   0.0000000  -0.5773503   0.0714724), wk =   0.0156250
        k(   19) = (   0.0625000   0.1082532   0.0000000), wk =   0.0156250
        k(   20) = (   0.0625000   0.1082532   0.0714724), wk =   0.0312500
        k(   21) = (   0.0625000   0.1804220   0.0000000), wk =   0.0312500
        k(   22) = (   0.0625000   0.1804220   0.0714724), wk =   0.0625000
        k(   23) = (   0.0625000   0.2525907   0.0000000), wk =   0.0312500
        k(   24) = (   0.0625000   0.2525907   0.0714724), wk =   0.0625000
        k(   25) = (   0.0625000   0.3247595   0.0000000), wk =   0.0312500
        k(   26) = (   0.0625000   0.3247595   0.0714724), wk =   0.0625000
        k(   27) = (   0.0625000   0.3969283   0.0000000), wk =   0.0312500
        k(   28) = (   0.0625000   0.3969283   0.0714724), wk =   0.0625000
        k(   29) = (   0.0625000   0.4690971   0.0000000), wk =   0.0312500
        k(   30) = (   0.0625000   0.4690971   0.0714724), wk =   0.0625000
        k(   31) = (   0.0625000   0.5412659   0.0000000), wk =   0.0312500
        k(   32) = (   0.0625000   0.5412659   0.0714724), wk =   0.0625000
        k(   33) = (   0.1250000   0.2165064   0.0000000), wk =   0.0156250
        k(   34) = (   0.1250000   0.2165064   0.0714724), wk =   0.0312500
        k(   35) = (   0.1250000   0.2886751   0.0000000), wk =   0.0312500
        k(   36) = (   0.1250000   0.2886751   0.0714724), wk =   0.0625000
        k(   37) = (   0.1250000   0.3608439   0.0000000), wk =   0.0312500
        k(   38) = (   0.1250000   0.3608439   0.0714724), wk =   0.0625000
        k(   39) = (   0.1250000   0.4330127   0.0000000), wk =   0.0312500
        k(   40) = (   0.1250000   0.4330127   0.0714724), wk =   0.0625000
        k(   41) = (   0.1250000   0.5051815   0.0000000), wk =   0.0312500
        k(   42) = (   0.1250000   0.5051815   0.0714724), wk =   0.0625000
        k(   43) = (   0.1250000   0.5773503   0.0000000), wk =   0.0156250
        k(   44) = (   0.1250000   0.5773503   0.0714724), wk =   0.0312500
        k(   45) = (   0.1875000   0.3247595   0.0000000), wk =   0.0156250
        k(   46) = (   0.1875000   0.3247595   0.0714724), wk =   0.0312500
        k(   47) = (   0.1875000   0.3969283   0.0000000), wk =   0.0312500
        k(   48) = (   0.1875000   0.3969283   0.0714724), wk =   0.0625000
[...]
        k(   53) = (   0.2500000   0.2500000   0.0000000), wk =   0.0156250
        k(   54) = (   0.2500000   0.2500000   0.3333333), wk =   0.0312500
        k(   55) = (   0.2500000   0.3125000   0.0000000), wk =   0.0312500
        k(   56) = (   0.2500000   0.3125000   0.3333333), wk =   0.0625000
        k(   57) = (   0.2500000   0.3750000   0.0000000), wk =   0.0156250
        k(   58) = (   0.2500000   0.3750000   0.3333333), wk =   0.0312500
        k(   59) = (   0.3125000   0.3125000   0.0000000), wk =   0.0156250
        k(   60) = (   0.3125000   0.3125000   0.3333333), wk =   0.0312500

     Initial potential from superposition of free atoms

     starting charge      25.9990, renormalised to      26.0000

     negative rho (up, down):  2.650E-06 0.000E+00
     Starting wfcs are   18 randomized atomic wfcs

     Self-consistent Calculation

     iteration #  1     ecut=    35.00 Ry     beta= 0.40
     Davidson diagonalization with overlap

     ethr =  1.00E-02,  avg # of iterations =  2.1

     Threshold (ethr) on eigenvalues was too large:
     Diagonalizing with lowered threshold

     Davidson diagonalization with overlap

[...]

     negative rho (up, down):  3.990E-06 0.000E+00

     WARNING: integrated charge=    26.00002210, expected=    26.00000000

     total energy              =    -185.35681071 Ry
     estimated scf accuracy    <       0.10731914 Ry

[...]

     End of self-consistent calculation

          k = 0.0000 0.0000 0.0000 (  3089 PWs)   bands (ev):

   -60.1418 -34.3068 -34.1031 -34.1031 -13.3986 -12.0909  -4.9599  -1.9632
    -1.9632  -1.1059  -0.8536  -0.8535   0.6463   3.3898   3.3899   3.6434
     3.6434

     occupation numbers
     1.0000   1.0000   1.0000   1.0000   1.0000   1.0000   1.0000   1.0000
     1.0000   1.0000   1.0000   1.0000   1.0000   0.0000   0.0000   0.0000
     0.0000

[...]

     the Fermi energy is     1.6789 ev

!    total energy              =    -185.37522035 Ry
     estimated scf accuracy    <          5.0E-10 Ry
     smearing contrib. (-TS)   =       0.00000003 Ry
     internal energy E=F+TS    =    -185.37522038 Ry

     The total energy is F=E-TS. E is the sum of the following terms:
     one-electron contribution =    -701.34622642 Ry
     hartree contribution      =     352.13458886 Ry
     xc contribution           =     -32.23530391 Ry
     ewald contribution        =     196.07172110 Ry

     convergence has been achieved in  11 iterations

[...]

     Forces acting on atoms (cartesian axes, Ry/au):

     atom    1 type  1   force =    -0.00000000   -0.00000000    0.00000000
     atom    2 type  2   force =     0.00000000    0.00000000    0.01681186
     atom    3 type  2   force =     0.00000000    0.00000000   -0.01681186
     The non-local contrib.  to forces
     atom    1 type  1   force =     0.00000000    0.00000000    0.00000000
     atom    2 type  2   force =     0.00000000    0.00000000    0.28269583
     atom    3 type  2   force =     0.00000000    0.00000000   -0.28269583
     The ionic contribution  to forces
     atom    1 type  1   force =    -0.00001685    0.00000973    0.00000000
     atom    2 type  2   force =     0.00000843   -0.00000487  -32.34245354
     atom    3 type  2   force =     0.00000843   -0.00000487   32.34245354
     The local contribution  to forces
     atom    1 type  1   force =    -0.00010317    0.00006898    0.00009177
     atom    2 type  2   force =     0.00001740   -0.00000980   32.08793593
     atom    3 type  2   force =     0.00001740   -0.00000980  -32.08792464
     The core correction contribution to forces
     atom    1 type  1   force =     0.00000000    0.00000000    0.00000000
     atom    2 type  2   force =    -0.00000162    0.00000087   -0.01131396
     atom    3 type  2   force =    -0.00000162    0.00000087    0.01131291
     The Hubbard contrib.    to forces
     atom    1 type  1   force =     0.00000000    0.00000000    0.00000000
     atom    2 type  2   force =     0.00000000    0.00000000    0.00000000
     atom    3 type  2   force =     0.00000000    0.00000000    0.00000000
     The SCF correction term to forces
     atom    1 type  1   force =    -0.00000000    0.00000000    0.00000000
     atom    2 type  2   force =    -0.00000000   -0.00000000   -0.00004728
     atom    3 type  2   force =    -0.00000000   -0.00000000    0.00004728

     Total force =     0.023776     Total SCF correction =     0.000067

     Computing stress (Cartesian axis) and pressure

     negative rho (up, down):  8.295E-06 0.000E+00
          total   stress  (Ry/bohr**3)                   (kbar)     P=      -21.12
  -0.00015833   0.00000000   0.00000000          -23.29        0.00        0.00
   0.00000000  -0.00015833   0.00000000            0.00      -23.29        0.00
   0.00000000   0.00000000  -0.00011402            0.00        0.00      -16.77

     kinetic stress (kbar)   6382.43      0.00     -0.00
                                0.00   6382.43      0.00
                               -0.00      0.00   6447.28

     local   stress (kbar)-113701.74     -0.01      0.00
                               -0.01-113701.75     -0.00
                                0.00     -0.00 111385.10

     nonloc. stress (kbar)   3257.54      0.00     -0.00
                                0.00   3257.54      0.00
                               -0.00      0.00   3271.21

     hartree stress (kbar)  55694.86     -0.00      0.00
                               -0.00  55694.86     -0.00
                                0.00     -0.00 -52861.16

     exc-cor stress (kbar)    -87.25      0.00      0.00
                                0.00    -87.25      0.00
                                0.00      0.00    -88.94

     corecor stress (kbar)  -1298.38     -0.00      0.00
                               -0.00  -1298.38     -0.00
                                0.00     -0.00  -1301.00

     ewald   stress (kbar)  49729.24      0.01     -0.00
                                0.01  49729.26     -0.00
                               -0.00     -0.00 -66869.27

     hubbard stress (kbar)      0.00      0.00      0.00
                                0.00      0.00      0.00
                                0.00      0.00      0.00

     DFT-D   stress (kbar)      0.00      0.00      0.00
                                0.00      0.00      0.00
                                0.00      0.00      0.00

     XDM     stress (kbar)      0.00      0.00      0.00
                                0.00      0.00      0.00
                                0.00      0.00      0.00

     dft-nl  stress (kbar)      0.00      0.00      0.00
                                0.00      0.00      0.00
                                0.00      0.00      0.00

     TS-vdW  stress (kbar)      0.00      0.00      0.00
                                0.00      0.00      0.00
                                0.00      0.00      0.00

     MDB     stress (kbar)      0.00      0.00      0.00
                                0.00      0.00      0.00
                                0.00      0.00      0.00

     3D-RISM stress (kbar)      0.00      0.00      0.00
                                0.00      0.00      0.00
                                0.00      0.00      0.00

     BFGS Geometry Optimization
     Energy error            =      0.0E+00 Ry
     Gradient error          =      1.7E-02 Ry/Bohr

     number of scf cycles    =   1
     number of bfgs steps    =   0

     energy             new  =    -185.3752203472 Ry

     new trust radius        =       0.0168118604 bohr
     new conv_thr            =       0.0000000006 Ry

ATOMIC_POSITIONS (crystal)
Mo               0.6666670000        0.3333330000        0.7500000000
S                0.3333330000        0.6666670000        0.6454239200
S                0.3333330000        0.6666670000        0.8545760800

     Writing config-only to output data dir ./out/aiida.save/ :
     XML data file
     NEW-OLD atomic charge density approx. for the potential

[...]

     Energy error            =      4.6E-04 Ry
     Gradient error          =      1.0E-02 Ry/Bohr

[...]

     energy             old  =    -185.3752203472 Ry
     energy             new  =    -185.3756792494 Ry

     CASE: energy            _new < energy            _old

[...]

     negative rho (up, down):  8.274E-06 0.000E+00
     extrapolated charge   26.00000, renormalised to   26.00000

[...]

     Total force =     0.004676     Total SCF correction =     0.000014

[...]

     number of scf cycles    =   3
     number of bfgs steps    =   2

     energy             old  =    -185.3756792494 Ry
     energy             new  =    -185.3759341018 Ry

     CASE: energy            _new < energy            _old

     new trust radius        =       0.0085386489 bohr
     new conv_thr            =            5.1E-11 Ry

ATOMIC_POSITIONS (crystal)
Mo               0.6666670000        0.3333330000        0.7500000000
S                0.3333330000        0.6666670000        0.6463853121
S                0.3333330000        0.6666670000        0.8536146879

     Writing config-only to output data dir ./out/aiida.save/ :
     XML data file
     NEW-OLD atomic charge density approx. for the potential

     negative rho (up, down):  8.433E-06 0.000E+00
     extrapolated charge   26.00001, renormalised to   26.00000

     Self-consistent Calculation

[...]

     Threshold (ethr) on eigenvalues was too large:
     Diagonalizing with lowered threshold

     Davidson diagonalization with overlap

[...]

     total energy              =    -185.37596148 Ry
     estimated scf accuracy    <          6.0E-10 Ry

     iteration #  8     ecut=    35.00 Ry     beta= 0.40
     Davidson diagonalization with overlap

     ethr =  2.33E-12,  avg # of iterations =  2.0

[...]

     End of self-consistent calculation

[...]

          k = 0.3125 0.5413 0.0715 (  3073 PWs)   bands (ev):

   -60.1013 -34.4074 -34.3430 -34.2316 -11.3745 -11.2493  -4.8197  -4.1225
    -3.3638  -2.9240  -2.2750  -1.4017   0.5255   2.2707   3.7719   4.1508
     5.4942

     occupation numbers
     1.0000   1.0000   1.0000   1.0000   1.0000   1.0000   1.0000   1.0000
     1.0000   1.0000   1.0000   1.0000   1.0000   0.0001   0.0000   0.0000
     0.0000

     the Fermi energy is     1.6676 ev

     WARNING: integrated charge=    26.00000948, expected=    26.00000000

!    total energy              =    -185.37596148 Ry
     estimated scf accuracy    <          2.3E-11 Ry
     smearing contrib. (-TS)   =       0.00000014 Ry
     internal energy E=F+TS    =    -185.37596162 Ry

     The total energy is F=E-TS. E is the sum of the following terms:
     one-electron contribution =    -706.91731627 Ry
     hartree contribution      =     354.90258899 Ry
     xc contribution           =     -32.27237043 Ry
     ewald contribution        =     198.91113608 Ry

     convergence has been achieved in   8 iterations

     negative rho (up, down):  8.507E-06 0.000E+00

     Forces acting on atoms (cartesian axes, Ry/au):

     atom    1 type  1   force =     0.00000000    0.00000000    0.00000000
     atom    2 type  2   force =     0.00000000    0.00000000   -0.00006326
     atom    3 type  2   force =     0.00000000    0.00000000    0.00006326
     The non-local contrib.  to forces
     atom    1 type  1   force =     0.00000000    0.00000000    0.00000000
     atom    2 type  2   force =    -0.00000000    0.00000000    0.27299176
     atom    3 type  2   force =     0.00000000    0.00000000   -0.27299176
     The ionic contribution  to forces
     atom    1 type  1   force =    -0.00001763    0.00001018    0.00000000
     atom    2 type  2   force =     0.00000882   -0.00000509  -32.41916873
     atom    3 type  2   force =     0.00000882   -0.00000509   32.41916873
     The local contribution  to forces
     atom    1 type  1   force =    -0.00010305    0.00006891    0.00009173
     atom    2 type  2   force =     0.00001720   -0.00000968   32.15670726
     atom    3 type  2   force =     0.00001720   -0.00000968  -32.15669604
     The core correction contribution to forces
     atom    1 type  1   force =     0.00000000    0.00000000    0.00000000
     atom    2 type  2   force =    -0.00000162    0.00000087   -0.01057734
     atom    3 type  2   force =    -0.00000162    0.00000087    0.01057629
     The Hubbard contrib.    to forces
     atom    1 type  1   force =     0.00000000    0.00000000    0.00000000
     atom    2 type  2   force =     0.00000000    0.00000000    0.00000000
     atom    3 type  2   force =     0.00000000    0.00000000    0.00000000
     The SCF correction term to forces
     atom    1 type  1   force =    -0.00000000   -0.00000000    0.00000000
     atom    2 type  2   force =    -0.00000000   -0.00000000   -0.00001113
     atom    3 type  2   force =    -0.00000000    0.00000000    0.00001113

     Total force =     0.000089     Total SCF correction =     0.000016
     SCF correction compared to forces is large: reduce conv_thr to get better values

     Computing stress (Cartesian axis) and pressure

     negative rho (up, down):  8.507E-06 0.000E+00
          total   stress  (Ry/bohr**3)                   (kbar)     P=      -11.91
  -0.00012081   0.00000000   0.00000000          -17.77        0.00        0.00
   0.00000000  -0.00012081  -0.00000000            0.00      -17.77       -0.00
   0.00000000  -0.00000000  -0.00000130            0.00       -0.00       -0.19

     kinetic stress (kbar)   6386.26      0.00      0.00
                                0.00   6386.26      0.00
                                0.00      0.00   6472.31

     local   stress (kbar)-114699.63     -0.01      0.00
                               -0.01-114699.64     -0.00
                                0.00     -0.00 112443.03

     nonloc. stress (kbar)   3260.20      0.00      0.00
                                0.00   3260.20      0.00
                                0.00      0.00   3272.70

     hartree stress (kbar)  56164.49     -0.00      0.00
                               -0.00  56164.49      0.00
                                0.00      0.00 -53340.35

     exc-cor stress (kbar)    -89.01      0.00      0.00
                                0.00    -89.01      0.00
                                0.00      0.00    -90.71

     corecor stress (kbar)  -1298.59     -0.00      0.00
                               -0.00  -1298.59      0.00
                                0.00      0.00  -1301.30

     ewald   stress (kbar)  50258.51      0.01      0.00
                                0.01  50258.52     -0.00
                                0.00     -0.00 -67455.86

     hubbard stress (kbar)      0.00      0.00      0.00
                                0.00      0.00      0.00
                                0.00      0.00      0.00

     DFT-D   stress (kbar)      0.00      0.00      0.00
                                0.00      0.00      0.00
                                0.00      0.00      0.00

     XDM     stress (kbar)      0.00      0.00      0.00
                                0.00      0.00      0.00
                                0.00      0.00      0.00

     dft-nl  stress (kbar)      0.00      0.00      0.00
                                0.00      0.00      0.00
                                0.00      0.00      0.00

     TS-vdW  stress (kbar)      0.00      0.00      0.00
                                0.00      0.00      0.00
                                0.00      0.00      0.00

     MDB     stress (kbar)      0.00      0.00      0.00
                                0.00      0.00      0.00
                                0.00      0.00      0.00

     3D-RISM stress (kbar)      0.00      0.00      0.00
                                0.00      0.00      0.00
                                0.00      0.00      0.00

     Energy error            =      2.7E-05 Ry
     Gradient error          =      6.3E-05 Ry/Bohr

     bfgs converged in   4 scf cycles and   3 bfgs steps
     (criteria: energy <  3.0E-05 Ry, force <  1.0E-04 Ry/Bohr)

     End of BFGS Geometry Optimization

     Final energy             =    -185.3759614804 Ry

     File ./out/aiida.bfgs deleted, as requested
Begin final coordinates

ATOMIC_POSITIONS (crystal)
Mo               0.6666670000        0.3333330000        0.7500000000
S                0.3333330000        0.6666670000        0.6463853121
S                0.3333330000        0.6666670000        0.8536146879
End final coordinates

     Writing all to output data dir ./out/aiida.save/ :
     XML data file, charge density, pseudopotentials, collected wavefunctions

     General routines

     Parallel routines

   This run was terminated on:  13:34:40  12Dec2024

   JOB DONE.