     Program PWSCF v.7.3.1 starts on 18Oct2024 at 22:28:47

     Waiting for input...
     Reading input from standard input

     Current dimensions of program PWSCF are:
     Max number of different atomic species (ntypx) = 10
     Max number of k-points (npk) =  40000
     Max angular momentum in pseudopotentials (lmaxx) =  4
     file Ba.pbe-mt_fhi.UPF: wavefunction(s)  6p 5d 4f renormalized
     file Ti.pbe-mt_fhi.UPF: wavefunction(s)  4f renormalized
     file O.pbe-mt_fhi.UPF: wavefunction(s)  4f renormalized

     Subspace diagonalization in iterative solution of the eigenvalue problem:
     a serial algorithm will be used

     Using Slab Decomposition

     bravais-lattice index     =            6
     lattice parameter (alat)  =       7.5400  a.u.
     unit-cell volume          =     431.8853 (a.u.)^3
     number of atoms/cell      =            5
     number of atomic types    =            3
     number of electrons       =        24.00
     number of Kohn-Sham states=           12
     kinetic-energy cutoff     =      18.0000  Ry
     charge density cutoff     =      72.0000  Ry
     scf convergence threshold =      1.0E-08
     mixing beta               =       0.7000
     number of iterations used =            8  plain     mixing
     Exchange-correlation= PBE
                           (   1   4   3   4   0   0   0)

     celldm(1)=   7.540007  celldm(2)=   0.000000  celldm(3)=   1.007519
     celldm(4)=   0.000000  celldm(5)=   0.000000  celldm(6)=   0.000000

     crystal axes: (cart. coord. in units of alat)
               a(1) = (   1.000000   0.000000   0.000000 )
               a(2) = (   0.000000   1.000000   0.000000 )
               a(3) = (   0.000000   0.000000   1.007519 )

     reciprocal axes: (cart. coord. in units 2 pi/alat)
               b(1) = (  1.000000  0.000000  0.000000 )
               b(2) = (  0.000000  1.000000  0.000000 )
               b(3) = (  0.000000  0.000000  0.992537 )

     PseudoPot. # 1 for Ba read from file:
     ./Ba.pbe-mt_fhi.UPF
     MD5 check sum: e433903a3ae973a33803749d57a646fb
     Pseudo is Norm-conserving + core correction, Zval =  2.0
     Generated using FHI98PP, converted with fhi2upf.x v.5.0.2
     Using radial grid of  553 points,  3 beta functions with:
                l(1) =   1
                l(2) =   2
                l(3) =   3

     PseudoPot. # 2 for Ti read from file:
     ./Ti.pbe-mt_fhi.UPF
     MD5 check sum: d63cd306a9b93ee747718a82aae46d3d
     Pseudo is Norm-conserving, Zval =  4.0
     Generated using FHI98PP, converted with fhi2upf.x v.5.0.2
     Using radial grid of  515 points,  3 beta functions with:
                l(1) =   0
                l(2) =   2
                l(3) =   3

     PseudoPot. # 3 for O  read from file:
     ./O.pbe-mt_fhi.UPF
     MD5 check sum: 1bb3d81471536849aa309dd26bc7a493
     Pseudo is Norm-conserving, Zval =  6.0
     Generated using FHI98PP, converted with fhi2upf.x v.5.0.2
     Using radial grid of  473 points,  3 beta functions with:
                l(1) =   0
                l(2) =   1
                l(3) =   3

     atomic species   valence    mass     pseudopotential
     Ba                2.00   137.32700     Ba( 1.00)
     Ti                4.00    47.86700     Ti( 1.00)
     O                 6.00    15.99900     O ( 1.00)

      8 Sym. Ops. (no inversion) found

   Cartesian axes

     site n.     atom                  positions (alat units)
         1        Ba     tau(   1) = (   0.0000000   0.0000000   0.0000000  )
         2        Ti     tau(   2) = (   0.5000000   0.5000000   0.5070000  )
         3        O      tau(   3) = (   0.5000000   0.5000000   0.0000000  )
         4        O      tau(   4) = (   0.5000000   0.0000000   0.5210000  )
         5        O      tau(   5) = (   0.0000000   0.5000000   0.5210000  )

     number of k points=     6
                       cart. coord. in units 2pi/alat
        k(    1) = (   0.1250000   0.1250000   0.1240672), wk =   0.2500000
        k(    2) = (   0.1250000   0.1250000   0.3722015), wk =   0.2500000
        k(    3) = (   0.1250000   0.3750000   0.1240672), wk =   0.5000000
        k(    4) = (   0.1250000   0.3750000   0.3722015), wk =   0.5000000
        k(    5) = (   0.3750000   0.3750000   0.1240672), wk =   0.2500000
        k(    6) = (   0.3750000   0.3750000   0.3722015), wk =   0.2500000

     Initial potential from superposition of free atoms

     starting charge      23.9824, renormalised to      24.0000

     negative rho (up, down):  3.181E-04 0.000E+00
     Starting wfcs are   80 randomized atomic wfcs

     Self-consistent Calculation

     iteration #  1     ecut=    18.00 Ry     beta= 0.70
     Davidson diagonalization with overlap
     ethr =  1.00E-02,  avg # of iterations =  2.0

     total energy              =     -98.11179447 Ry
     estimated scf accuracy    <       3.34779289 Ry

[...]

     total energy              =     -99.50665027 Ry
     estimated scf accuracy    <       0.00000005 Ry

     iteration # 13     ecut=    18.00 Ry     beta= 0.70
     Davidson diagonalization with overlap
     ethr =  1.98E-10,  avg # of iterations =  5.5

     End of self-consistent calculation

          k = 0.1250 0.1250 0.1241 (   551 PWs)   bands (ev):

   -16.6126 -15.9711 -15.9451   2.8869   3.5552   3.5917   5.1282   5.2053
     5.3727   6.0920   6.5259   6.5594

[...]

          k = 0.3750 0.3750 0.3722 (   560 PWs)   bands (ev):

   -16.1738 -16.1069 -16.0781   1.4056   3.5153   3.6187   3.7586   4.1766
     4.2163   6.5830   6.5835   6.7930

     highest occupied level (ev):     6.8926

!    total energy              =     -99.50665031 Ry
     estimated scf accuracy    <          4.3E-09 Ry

     The total energy is the sum of the following terms:
     one-electron contribution =     -31.12067444 Ry
     hartree contribution      =      30.03815195 Ry
     xc contribution           =     -24.67928206 Ry
     ewald contribution        =     -73.74484576 Ry

     convergence has been achieved in  13 iterations

     Writing all to output data dir ./out/BaTiO3.save/ :
     XML data file, charge density, pseudopotentials, collected wavefunctions

     General routines

     Parallel routines

   This run was terminated on:  22:28:49  18Oct2024

   JOB DONE.