     Program PWSCF v.7.3.1 starts on  5Dec2024 at 16:57:51

     Waiting for input...
     Reading input from standard input

     Current dimensions of program PWSCF are:
     Max number of different atomic species (ntypx) = 10
     Max number of k-points (npk) =  40000
     Max angular momentum in pseudopotentials (lmaxx) =  4
     file C.pbesol-n-kjpaw_psl.1.0.0.UPF: wavefunction(s)  2S 2P renormalized
     Found identity + (  0.0000 -0.5000  0.0000) symmetry
     This is a supercell, fractional translations are disabled
     Message from routine setup:
     using ibrav=0 with symmetry is DISCOURAGED, use correct ibrav instead

     Subspace diagonalization in iterative solution of the eigenvalue problem:
     a serial algorithm will be used

     Using Slab Decomposition

     bravais-lattice index     =            0
     lattice parameter (alat)  =       9.2975  a.u.
     unit-cell volume          =     707.3387 (a.u.)^3
     number of atoms/cell      =            8
     number of atomic types    =            1
     number of electrons       =        32.00
     number of Kohn-Sham states=           20
     kinetic-energy cutoff     =      45.0000  Ry
     charge density cutoff     =     360.0000  Ry
     scf convergence threshold =      1.6E-09
     mixing beta               =       0.4000
     number of iterations used =            8  plain     mixing
     energy convergence thresh.=      8.0E-05
     force convergence thresh. =      1.0E-04
     Exchange-correlation= SLA  PW   PSX  PSC
                           (   1   4  10   8   0   0   0)
     nstep                     =           50

     celldm(1)=   9.297453  celldm(2)=   0.000000  celldm(3)=   0.000000
     celldm(4)=   0.000000  celldm(5)=   0.000000  celldm(6)=   0.000000

     crystal axes: (cart. coord. in units of alat)
               a(1) = (   1.000000   0.000000   0.000000 )
               a(2) = (  -0.500000   0.866025   0.000000 )
               a(3) = (   0.000000   0.000000   1.016260 )

     reciprocal axes: (cart. coord. in units 2 pi/alat)
               b(1) = (  1.000000  0.577350 -0.000000 )
               b(2) = (  0.000000  1.154701  0.000000 )
               b(3) = (  0.000000 -0.000000  0.984000 )

     PseudoPot. # 1 for C  read from file:
     ./C.pbesol-n-kjpaw_psl.1.0.0.UPF
     MD5 check sum: f9b2fe17d1f478429498b05d17159f9e
     Pseudo is Projector augmented-wave + core cor, Zval =  4.0
     Generated using &quot;atomic&quot; code by A. Dal Corso  v.6.3
     Shape of augmentation charge: PSQ
     Using radial grid of 1073 points,  4 beta functions with:
                l(1) =   0
                l(2) =   0
                l(3) =   1
                l(4) =   1
     Q(r) pseudized with 0 coefficients

     atomic species   valence    mass     pseudopotential
     C                 4.00    12.01070     C ( 1.00)

      6 Sym. Ops. (no inversion) found

                                    s                        frac. trans.

      isym =  1     identity

 cryst.   s( 1) = (     1          0          0      )
                  (     0          1          0      )
                  (     0          0          1      )

 cart.    s( 1) = (  1.0000000  0.0000000  0.0000000 )
                  (  0.0000000  1.0000000  0.0000000 )
                  (  0.0000000  0.0000000  1.0000000 )

      isym =  2     120 deg rotation - cryst. axis [0,0,1]

[...]

      isym =  3     120 deg rotation - cryst. axis [0,0,-1]

[...]

      isym =  4     inv. 180 deg rotation - cart. axis [1,0,0]

[...]

      isym =  5     inv. 180 deg rotation - cryst. axis [0,1,0]

[...]

      isym =  6     inv. 180 deg rotation - cryst. axis [1,1,0]

 cryst.   s( 6) = (     0         -1          0      )
                  (    -1          0          0      )
                  (     0          0          1      )

 cart.    s( 6) = (  0.5000000 -0.8660254  0.0000000 )
                  ( -0.8660254 -0.5000000  0.0000000 )
                  (  0.0000000  0.0000000  1.0000000 )

   Cartesian axes

     site n.     atom                  positions (alat units)
         1        C      tau(   1) = (   0.0000000   0.0000000   0.2540650  )
         2        C      tau(   2) = (  -0.2500000   0.4330127   0.2540650  )
         3        C      tau(   3) = (   0.5000000   0.0000000   0.2540650  )
         4        C      tau(   4) = (   0.2500000   0.4330127   0.2540650  )
         5        C      tau(   5) = (  -0.0000005   0.2886748   0.2540650  )
         6        C      tau(   6) = (  -0.2500005   0.7216875   0.2540650  )
         7        C      tau(   7) = (   0.4999995   0.2886748   0.2540650  )
         8        C      tau(   8) = (   0.2499995   0.7216875   0.2540650  )

   Crystallographic axes

     site n.     atom                  positions (cryst. coord.)
         1        C      tau(   1) = (  0.0000000  0.0000000  0.2500000  )
         2        C      tau(   2) = (  0.0000000  0.5000000  0.2500000  )
         3        C      tau(   3) = (  0.5000000  0.0000000  0.2500000  )
         4        C      tau(   4) = (  0.5000000  0.5000000  0.2500000  )
         5        C      tau(   5) = (  0.1666660  0.3333330  0.2500000  )
         6        C      tau(   6) = (  0.1666660  0.8333330  0.2500000  )
         7        C      tau(   7) = (  0.6666660  0.3333330  0.2500000  )
         8        C      tau(   8) = (  0.6666660  0.8333330  0.2500000  )

     number of k points=   102  Marzari-Vanderbilt smearing, width (Ry)=  0.0200
                       cart. coord. in units 2pi/alat
        k(    1) = (   0.0000000   0.0000000   0.0000000), wk =   0.0022222
        k(    2) = (   0.0000000   0.0000000   0.1093333), wk =   0.0044444
        k(    3) = (   0.0000000   0.0000000   0.2186667), wk =   0.0044444
        k(    4) = (   0.0000000   0.0000000   0.3280000), wk =   0.0044444
        k(    5) = (   0.0000000   0.0000000   0.4373333), wk =   0.0044444
        k(    6) = (   0.0000000   0.1154701   0.0000000), wk =   0.0133333
        k(    7) = (   0.0000000   0.1154701   0.1093333), wk =   0.0133333
        k(    8) = (   0.0000000   0.1154701   0.2186667), wk =   0.0133333
        k(    9) = (   0.0000000   0.1154701   0.3280000), wk =   0.0133333
        k(   10) = (   0.0000000   0.1154701   0.4373333), wk =   0.0133333
        k(   11) = (   0.0000000   0.2309401   0.0000000), wk =   0.0133333
        k(   12) = (   0.0000000   0.2309401   0.1093333), wk =   0.0133333
        k(   13) = (   0.0000000   0.2309401   0.2186667), wk =   0.0133333
        k(   14) = (   0.0000000   0.2309401   0.3280000), wk =   0.0133333
        k(   15) = (   0.0000000   0.2309401   0.4373333), wk =   0.0133333
        k(   16) = (   0.0000000   0.3464102   0.0000000), wk =   0.0133333
        k(   17) = (   0.0000000   0.3464102   0.1093333), wk =   0.0133333
        k(   18) = (   0.0000000   0.3464102   0.2186667), wk =   0.0133333
        k(   19) = (   0.0000000   0.3464102   0.3280000), wk =   0.0133333
        k(   20) = (   0.0000000   0.3464102   0.4373333), wk =   0.0133333
        k(   21) = (   0.0000000   0.4618802   0.0000000), wk =   0.0133333
        k(   22) = (   0.0000000   0.4618802   0.1093333), wk =   0.0133333
        k(   23) = (   0.0000000   0.4618802   0.2186667), wk =   0.0133333
        k(   24) = (   0.0000000   0.4618802   0.3280000), wk =   0.0133333
        k(   25) = (   0.0000000   0.4618802   0.4373333), wk =   0.0133333
        k(   26) = (   0.0000000  -0.5773503   0.0000000), wk =   0.0066667
        k(   27) = (   0.0000000  -0.5773503   0.1093333), wk =   0.0133333
        k(   28) = (   0.0000000  -0.5773503   0.2186667), wk =   0.0133333
        k(   29) = (   0.0000000  -0.5773503   0.3280000), wk =   0.0133333
        k(   30) = (   0.0000000  -0.5773503   0.4373333), wk =   0.0133333
        k(   31) = (   0.1000000   0.1732051   0.0000000), wk =   0.0133333
        k(   32) = (   0.1000000   0.1732051   0.1093333), wk =   0.0266667
        k(   33) = (   0.1000000   0.1732051   0.2186667), wk =   0.0266667
        k(   34) = (   0.1000000   0.1732051   0.3280000), wk =   0.0266667
        k(   35) = (   0.1000000   0.1732051   0.4373333), wk =   0.0266667
        k(   36) = (   0.1000000   0.2886751   0.0000000), wk =   0.0266667
        k(   37) = (   0.1000000   0.2886751   0.1093333), wk =   0.0266667
        k(   38) = (   0.1000000   0.2886751   0.2186667), wk =   0.0266667
        k(   39) = (   0.1000000   0.2886751   0.3280000), wk =   0.0266667
        k(   40) = (   0.1000000   0.2886751   0.4373333), wk =   0.0266667
        k(   41) = (   0.1000000   0.4041452   0.0000000), wk =   0.0266667
        k(   42) = (   0.1000000   0.4041452   0.1093333), wk =   0.0266667
        k(   43) = (   0.1000000   0.4041452   0.2186667), wk =   0.0266667
        k(   44) = (   0.1000000   0.4041452   0.3280000), wk =   0.0266667
        k(   45) = (   0.1000000   0.4041452   0.4373333), wk =   0.0266667
        k(   46) = (   0.1000000   0.5196152   0.0000000), wk =   0.0266667
        k(   47) = (   0.1000000   0.5196152   0.1093333), wk =   0.0266667
        k(   48) = (   0.1000000   0.5196152   0.2186667), wk =   0.0266667
        k(   49) = (   0.1000000   0.5196152   0.3280000), wk =   0.0266667
        k(   50) = (   0.1000000   0.5196152   0.4373333), wk =   0.0266667
        k(   51) = (   0.2000000   0.3464102   0.0000000), wk =   0.0133333
        k(   52) = (   0.2000000   0.3464102   0.1093333), wk =   0.0266667
        k(   53) = (   0.2000000   0.3464102   0.2186667), wk =   0.0266667
        k(   54) = (   0.2000000   0.3464102   0.3280000), wk =   0.0266667
        k(   55) = (   0.2000000   0.3464102   0.4373333), wk =   0.0266667
        k(   56) = (   0.2000000   0.4618802   0.0000000), wk =   0.0266667
        k(   57) = (   0.2000000   0.4618802   0.1093333), wk =   0.0266667
        k(   58) = (   0.2000000   0.4618802   0.2186667), wk =   0.0266667
        k(   59) = (   0.2000000   0.4618802   0.3280000), wk =   0.0266667
        k(   60) = (   0.2000000   0.4618802   0.4373333), wk =   0.0266667
[...]
        k(   88) = (  -0.1000000  -0.2886751   0.2186667), wk =   0.0266667
        k(   89) = (  -0.1000000  -0.2886751   0.3280000), wk =   0.0266667
        k(   90) = (  -0.1000000  -0.2886751   0.4373333), wk =   0.0266667
        k(   91) = (  -0.1000000  -0.4041452   0.1093333), wk =   0.0266667
        k(   92) = (  -0.1000000  -0.4041452   0.2186667), wk =   0.0266667
        k(   93) = (  -0.1000000  -0.4041452   0.3280000), wk =   0.0266667
        k(   94) = (  -0.1000000  -0.4041452   0.4373333), wk =   0.0266667
        k(   95) = (  -0.1000000  -0.5196152   0.1093333), wk =   0.0266667
        k(   96) = (  -0.1000000  -0.5196152   0.2186667), wk =   0.0266667
        k(   97) = (  -0.1000000  -0.5196152   0.3280000), wk =   0.0266667
        k(   98) = (  -0.1000000  -0.5196152   0.4373333), wk =   0.0266667
        k(   99) = (  -0.2000000  -0.4618802   0.1093333), wk =   0.0266667
        k(  100) = (  -0.2000000  -0.4618802   0.2186667), wk =   0.0266667
        k(  101) = (  -0.2000000  -0.4618802   0.3280000), wk =   0.0266667
[...]
        k(   12) = (   0.0000000   0.2000000   0.1111111), wk =   0.0133333
        k(   13) = (   0.0000000   0.2000000   0.2222222), wk =   0.0133333
        k(   14) = (   0.0000000   0.2000000   0.3333333), wk =   0.0133333
        k(   15) = (   0.0000000   0.2000000   0.4444444), wk =   0.0133333
        k(   16) = (   0.0000000   0.3000000   0.0000000), wk =   0.0133333
        k(   17) = (   0.0000000   0.3000000   0.1111111), wk =   0.0133333
        k(   18) = (   0.0000000   0.3000000   0.2222222), wk =   0.0133333
        k(   19) = (   0.0000000   0.3000000   0.3333333), wk =   0.0133333
        k(   20) = (   0.0000000   0.3000000   0.4444444), wk =   0.0133333
        k(   21) = (   0.0000000   0.4000000   0.0000000), wk =   0.0133333
        k(   22) = (   0.0000000   0.4000000   0.1111111), wk =   0.0133333
        k(   23) = (   0.0000000   0.4000000   0.2222222), wk =   0.0133333
        k(   24) = (   0.0000000   0.4000000   0.3333333), wk =   0.0133333
        k(   25) = (   0.0000000   0.4000000   0.4444444), wk =   0.0133333
        k(   26) = (   0.0000000  -0.5000000   0.0000000), wk =   0.0066667
        k(   27) = (   0.0000000  -0.5000000   0.1111111), wk =   0.0133333
        k(   28) = (   0.0000000  -0.5000000   0.2222222), wk =   0.0133333
        k(   29) = (   0.0000000  -0.5000000   0.3333333), wk =   0.0133333
        k(   30) = (   0.0000000  -0.5000000   0.4444444), wk =   0.0133333
        k(   31) = (   0.1000000   0.1000000   0.0000000), wk =   0.0133333
        k(   32) = (   0.1000000   0.1000000   0.1111111), wk =   0.0266667
        k(   33) = (   0.1000000   0.1000000   0.2222222), wk =   0.0266667
        k(   34) = (   0.1000000   0.1000000   0.3333333), wk =   0.0266667
        k(   35) = (   0.1000000   0.1000000   0.4444444), wk =   0.0266667
        k(   36) = (   0.1000000   0.2000000   0.0000000), wk =   0.0266667
        k(   37) = (   0.1000000   0.2000000   0.1111111), wk =   0.0266667
        k(   38) = (   0.1000000   0.2000000   0.2222222), wk =   0.0266667
        k(   39) = (   0.1000000   0.2000000   0.3333333), wk =   0.0266667
        k(   40) = (   0.1000000   0.2000000   0.4444444), wk =   0.0266667
        k(   41) = (   0.1000000   0.3000000   0.0000000), wk =   0.0266667
        k(   42) = (   0.1000000   0.3000000   0.1111111), wk =   0.0266667
        k(   43) = (   0.1000000   0.3000000   0.2222222), wk =   0.0266667
        k(   44) = (   0.1000000   0.3000000   0.3333333), wk =   0.0266667
        k(   45) = (   0.1000000   0.3000000   0.4444444), wk =   0.0266667
        k(   46) = (   0.1000000   0.4000000   0.0000000), wk =   0.0266667
        k(   47) = (   0.1000000   0.4000000   0.1111111), wk =   0.0266667
        k(   48) = (   0.1000000   0.4000000   0.2222222), wk =   0.0266667
        k(   49) = (   0.1000000   0.4000000   0.3333333), wk =   0.0266667
        k(   50) = (   0.1000000   0.4000000   0.4444444), wk =   0.0266667
        k(   51) = (   0.2000000   0.2000000   0.0000000), wk =   0.0133333
        k(   52) = (   0.2000000   0.2000000   0.1111111), wk =   0.0266667
        k(   53) = (   0.2000000   0.2000000   0.2222222), wk =   0.0266667
        k(   54) = (   0.2000000   0.2000000   0.3333333), wk =   0.0266667
        k(   55) = (   0.2000000   0.2000000   0.4444444), wk =   0.0266667
        k(   56) = (   0.2000000   0.3000000   0.0000000), wk =   0.0266667
        k(   57) = (   0.2000000   0.3000000   0.1111111), wk =   0.0266667
        k(   58) = (   0.2000000   0.3000000   0.2222222), wk =   0.0266667
        k(   59) = (   0.2000000   0.3000000   0.3333333), wk =   0.0266667
        k(   60) = (   0.2000000   0.3000000   0.4444444), wk =   0.0266667
[...]
        k(   88) = (  -0.1000000  -0.2000000   0.2222222), wk =   0.0266667
        k(   89) = (  -0.1000000  -0.2000000   0.3333333), wk =   0.0266667
        k(   90) = (  -0.1000000  -0.2000000   0.4444444), wk =   0.0266667
        k(   91) = (  -0.1000000  -0.3000000   0.1111111), wk =   0.0266667
        k(   92) = (  -0.1000000  -0.3000000   0.2222222), wk =   0.0266667
        k(   93) = (  -0.1000000  -0.3000000   0.3333333), wk =   0.0266667
        k(   94) = (  -0.1000000  -0.3000000   0.4444444), wk =   0.0266667
        k(   95) = (  -0.1000000  -0.4000000   0.1111111), wk =   0.0266667
        k(   96) = (  -0.1000000  -0.4000000   0.2222222), wk =   0.0266667
        k(   97) = (  -0.1000000  -0.4000000   0.3333333), wk =   0.0266667
        k(   98) = (  -0.1000000  -0.4000000   0.4444444), wk =   0.0266667
        k(   99) = (  -0.2000000  -0.3000000   0.1111111), wk =   0.0266667
        k(  100) = (  -0.2000000  -0.3000000   0.2222222), wk =   0.0266667
        k(  101) = (  -0.2000000  -0.3000000   0.3333333), wk =   0.0266667
        k(  102) = (  -0.2000000  -0.3000000   0.4444444), wk =   0.0266667

     Check: negative core charge=   -0.000009

     Initial potential from superposition of free atoms

     starting charge      31.9997, renormalised to      32.0000
     Starting wfcs are   32 randomized atomic wfcs
     Checking if some PAW data can be deallocated...

     Self-consistent Calculation

     iteration #  1     ecut=    45.00 Ry     beta= 0.40
     Davidson diagonalization with overlap

     ethr =  1.00E-02,  avg # of iterations =  2.3

     WARNING: integrated charge=    32.00273269, expected=    32.00000000

     total energy              =    -144.96800049 Ry
     estimated scf accuracy    <       0.74859668 Ry

[...]

     total energy              =    -144.92681762 Ry
     estimated scf accuracy    <       0.00000004 Ry

     iteration #  9     ecut=    45.00 Ry     beta= 0.40
     Davidson diagonalization with overlap

     ethr =  1.26E-10,  avg # of iterations =  2.0

     End of self-consistent calculation

          k = 0.0000 0.0000 0.0000 (  3573 PWs)   bands (ev):

   -16.2467 -10.9384 -10.9383 -10.9383  -9.9898  -9.9898  -9.9897  -4.3237
    -3.1265  -3.1264  -3.1264   0.2955   0.2956   0.9626   0.9626   0.9626
     5.0340   5.0340   5.0341   6.1558

     occupation numbers
     1.0000   1.0000   1.0000   1.0000   1.0000   1.0000   1.0000   1.0000
     1.0000   1.0000   1.0000   1.0000   1.0000   1.0000   1.0000   1.0000
     0.0000   0.0000   0.0000   0.0000

[...]

          k = 0.0000-0.4619 0.4373 (  3596 PWs)   bands (ev):

[...]

          k =-0.1000-0.2887 0.1093 (  3594 PWs)   bands (ev):

[...]

          k =-0.2000-0.4619 0.4373 (  3611 PWs)   bands (ev):

   -15.1199 -13.9574 -13.3851 -10.2211  -8.9215  -6.4675  -5.9842  -5.3982
    -3.8642  -3.1258  -2.9771  -2.9206  -1.8036  -1.7721  -1.1174   2.1047
     4.3601   8.0517   8.9475   9.6385

     occupation numbers
     1.0000   1.0000   1.0000   1.0000   1.0000   1.0000   1.0000   1.0000
     1.0000   1.0000   1.0000   1.0000   1.0000   1.0000   1.0000   1.0000
     0.0000   0.0000   0.0000   0.0000

     the Fermi energy is     3.4355 ev

     WARNING: integrated charge=    32.00624822, expected=    32.00000000

!    total energy              =    -144.92681766 Ry
     total all-electron energy =      -607.159040 Ry
     estimated scf accuracy    <          9.5E-10 Ry
     smearing contrib. (-TS)   =       0.00011935 Ry
     internal energy E=F+TS    =    -144.92693701 Ry

     The total energy is F=E-TS. E is the sum of the following terms:
     one-electron contribution =    -100.68241422 Ry
     hartree contribution      =      62.69022983 Ry
     xc contribution           =     -36.67772352 Ry
     ewald contribution        =     -23.13427330 Ry
     one-center paw contrib.   =     -47.12275580 Ry
      -> PAW hartree energy AE =      76.45384947 Ry
      -> PAW hartree energy PS =     -76.38460696 Ry
      -> PAW xc energy AE      =     -83.03253140 Ry
      -> PAW xc energy PS      =      35.84053308 Ry
      -> total E_H with PAW    =      62.75947235 Ry
      -> total E_XC with PAW   =     -83.86972184 Ry

     convergence has been achieved in   9 iterations

     Forces acting on atoms (cartesian axes, Ry/au):

     atom    1 type  1   force =     0.00000000    0.00000000   -0.00000001
     atom    2 type  1   force =     0.00000008    0.00000005    0.00000001
     atom    3 type  1   force =    -0.00000000   -0.00000009    0.00000001
     atom    4 type  1   force =    -0.00000008    0.00000005    0.00000001
     atom    5 type  1   force =     0.00000000   -0.00000037   -0.00000001
     atom    6 type  1   force =    -0.00000032    0.00000018   -0.00000001
     atom    7 type  1   force =     0.00000000    0.00000000    0.00000001
     atom    8 type  1   force =     0.00000032    0.00000018   -0.00000001
     The non-local contrib.  to forces
     atom    1 type  1   force =     0.00000000    0.00000000    0.00000008
     atom    2 type  1   force =     0.00000033    0.00000019    0.00000007
     atom    3 type  1   force =     0.00000000   -0.00000038    0.00000007
     atom    4 type  1   force =    -0.00000033    0.00000019    0.00000007
     atom    5 type  1   force =     0.00000000   -0.00000075   -0.00000004
     atom    6 type  1   force =    -0.00000065    0.00000038   -0.00000004
     atom    7 type  1   force =     0.00000000   -0.00000000   -0.00000006
     atom    8 type  1   force =     0.00000065    0.00000038   -0.00000004
     The ionic contribution  to forces
     atom    1 type  1   force =    -0.00001714   -0.00000990    0.00000000
     atom    2 type  1   force =    -0.00001714   -0.00000990   -0.00000000
     atom    3 type  1   force =    -0.00001714   -0.00000990   -0.00000000
     atom    4 type  1   force =    -0.00001714   -0.00000990   -0.00000000
     atom    5 type  1   force =     0.00001714    0.00000990    0.00000000
     atom    6 type  1   force =     0.00001714    0.00000990    0.00000000
     atom    7 type  1   force =     0.00001714    0.00000990   -0.00000000
     atom    8 type  1   force =     0.00001714    0.00000990    0.00000000
     The local contribution  to forces
     atom    1 type  1   force =     0.00000000    0.00000000   -0.00000009
     atom    2 type  1   force =    -0.00000046   -0.00000026   -0.00000012
     atom    3 type  1   force =     0.00000000    0.00000053   -0.00000012
     atom    4 type  1   force =     0.00000046   -0.00000026   -0.00000012
     atom    5 type  1   force =     0.00001160    0.00000691   -0.00000000
     atom    6 type  1   force =     0.00001179    0.00000659   -0.00000000
     atom    7 type  1   force =     0.00001160    0.00000670   -0.00000003
     atom    8 type  1   force =     0.00001141    0.00000659   -0.00000000
     The core correction contribution to forces
     atom    1 type  1   force =    -0.00000000   -0.00000000   -0.00000000
     atom    2 type  1   force =    -0.00000001   -0.00000001   -0.00000000
     atom    3 type  1   force =    -0.00000000    0.00000001   -0.00000000
     atom    4 type  1   force =     0.00000001   -0.00000001   -0.00000000
     atom    5 type  1   force =    -0.00000112   -0.00000062   -0.00000000
     atom    6 type  1   force =    -0.00000109   -0.00000066   -0.00000000
     atom    7 type  1   force =    -0.00000112   -0.00000064    0.00000000
     atom    8 type  1   force =    -0.00000114   -0.00000066   -0.00000000
     The Hubbard contrib.    to forces
     atom    1 type  1   force =     0.00000000    0.00000000    0.00000000
     atom    2 type  1   force =     0.00000000    0.00000000    0.00000000
     atom    3 type  1   force =     0.00000000    0.00000000    0.00000000
     atom    4 type  1   force =     0.00000000    0.00000000    0.00000000
     atom    5 type  1   force =     0.00000000    0.00000000    0.00000000
     atom    6 type  1   force =     0.00000000    0.00000000    0.00000000
     atom    7 type  1   force =     0.00000000    0.00000000    0.00000000
     atom    8 type  1   force =     0.00000000    0.00000000    0.00000000
     The SCF correction term to forces
     atom    1 type  1   force =    -0.00000000   -0.00000000   -0.00000003
     atom    2 type  1   force =     0.00000022    0.00000013    0.00000004
     atom    3 type  1   force =    -0.00000000   -0.00000025    0.00000004
     atom    4 type  1   force =    -0.00000022    0.00000013    0.00000004
     atom    5 type  1   force =     0.00000000    0.00000015    0.00000002
     atom    6 type  1   force =     0.00000013   -0.00000007    0.00000002
     atom    7 type  1   force =     0.00000000    0.00000000    0.00000008
     atom    8 type  1   force =    -0.00000013   -0.00000007    0.00000002

     Total force =     0.000001     Total SCF correction =     0.000001
     SCF correction compared to forces is large: reduce conv_thr to get better values

     Computing stress (Cartesian axis) and pressure

          total   stress  (Ry/bohr**3)                   (kbar)     P=       -1.22
  -0.00001033   0.00000000   0.00000000           -1.52        0.00        0.00
   0.00000000  -0.00001033   0.00000000            0.00       -1.52        0.00
   0.00000000   0.00000000  -0.00000420            0.00        0.00       -0.62

     kinetic stress (kbar)   7794.40      0.00      0.00
                                0.00   7794.40      0.00
                                0.00     -0.00   8826.11

     local   stress (kbar) -31887.93      0.02     -0.00
                                0.02 -31887.95     -0.00
                               -0.00     -0.00  31130.15

     nonloc. stress (kbar)   2102.99      0.00      0.00
                                0.00   2102.99     -0.00
                                0.00      0.00   1915.64

     hartree stress (kbar)  12359.64     -0.00      0.00
                               -0.00  12359.64     -0.00
                                0.00     -0.00 -11681.61

     exc-cor stress (kbar)   -174.36     -0.00     -0.00
                               -0.00   -174.36     -0.00
                               -0.00     -0.00   -211.86

     corecor stress (kbar)  -1864.26      0.00      0.00
                                0.00  -1864.26      0.00
                                0.00      0.00  -1831.79

     ewald   stress (kbar)  11667.99     -0.03      0.00
                               -0.03  11668.03     -0.00
                                0.00     -0.00 -28147.25

     hubbard stress (kbar)      0.00      0.00      0.00
                                0.00      0.00      0.00
                                0.00      0.00      0.00

     DFT-D   stress (kbar)      0.00      0.00      0.00
                                0.00      0.00      0.00
                                0.00      0.00      0.00

     XDM     stress (kbar)      0.00      0.00      0.00
                                0.00      0.00      0.00
                                0.00      0.00      0.00

     dft-nl  stress (kbar)      0.00      0.00      0.00
                                0.00      0.00      0.00
                                0.00      0.00      0.00

     TS-vdW  stress (kbar)      0.00      0.00      0.00
                                0.00      0.00      0.00
                                0.00      0.00      0.00

     MDB     stress (kbar)      0.00      0.00      0.00
                                0.00      0.00      0.00
                                0.00      0.00      0.00

     3D-RISM stress (kbar)      0.00      0.00      0.00
                                0.00      0.00      0.00
                                0.00      0.00      0.00

     BFGS Geometry Optimization
     Energy error            =      0.0E+00 Ry
     Gradient error          =      3.7E-07 Ry/Bohr

     bfgs converged in   1 scf cycles and   0 bfgs steps
     (criteria: energy <  8.0E-05 Ry, force <  1.0E-04 Ry/Bohr)

     End of BFGS Geometry Optimization

     Final energy             =    -144.9268176615 Ry
Begin final coordinates

ATOMIC_POSITIONS (crystal)
C                0.0000000000        0.0000000000        0.2500000000
C                0.0000000000        0.5000000000        0.2500000000
C                0.5000000000        0.0000000000        0.2500000000
C                0.5000000000        0.5000000000        0.2500000000
C                0.1666660000        0.3333330000        0.2500000000
C                0.1666660000        0.8333330000        0.2500000000
C                0.6666660000        0.3333330000        0.2500000000
C                0.6666660000        0.8333330000        0.2500000000
End final coordinates

     Writing all to output data dir ./out/aiida.save/ :
     XML data file, charge density, pseudopotentials, collected wavefunctions

     General routines

     Parallel routines

     PAW routines

   This run was terminated on:  17: 0:36   5Dec2024

   JOB DONE.